(set-logic QF_S)
(declare-fun var0 () String)
(declare-fun var1 () Int)
(declare-fun var2 () Int)
(declare-fun var3 () String)
(declare-fun var4 () Int)
(declare-fun var5 () Int)
(declare-fun var6 () String)
(declare-fun var7 () String)
(assert (str.prefixof (str.substr var0 var1 var2) (str.replace (str.substr var3 var4 var5) (str.at var6 var2) (str.substr var7 var5 var1))))
(assert (str.in.re (str.replace var6 var6 var7) (re.+ re.allchar)))
(assert (>= 7 var1))
(assert (< var1 var2))
(check-sat)